p cnf 623 1745
-96 97 0 
-96 34 0 
-97 98 0 
-97 32 0 
-98 99 0 
-98 30 0 
-99 100 0 
-99 28 0 
-100 65 0 
-100 82 0 
-101 -102 3 0 
-101 102 38 0 
-102 103 0 
-103 104 0 
-104 105 0 
-104 157 0 
-105 106 0 
-105 146 0 
-106 107 0 
-106 133 0 
-107 108 0 
-107 122 0 
-108 109 0 
-108 114 0 
-109 -110 111 0 
-109 -111 110 0 
-111 112 0 
-112 113 0 
-8 -9 0 
-114 -115 116 0 
-114 -116 115 0 
-116 117 0 
-117 -118 -121 0 
-117 118 121 0 
-118 119 0 
-119 120 0 
-122 -123 124 0 
-122 -124 123 0 
-124 -125 -130 0 
-124 125 130 0 
-125 -126 -129 0 
-125 126 129 0 
-126 127 0 
-127 128 0 
-130 131 0 
-10 -11 0 
-131 132 0 
-132 118 0 
-132 121 0 
-133 -134 135 0 
-133 -135 134 0 
-135 -136 -141 0 
-135 136 141 0 
-136 -137 -140 0 
-136 137 140 0 
-137 138 0 
-138 139 0 
-141 142 145 0 
-142 143 144 0 
-143 126 0 
-143 129 0 
-144 129 0 
-144 130 0 
-145 126 0 
-145 130 0 
-146 -147 0 
-147 -148 -152 0 
-147 148 152 0 
-12 -13 0 
-148 149 0 
-149 150 0 
-150 151 0 
-152 153 156 0 
-153 154 155 0 
-154 137 0 
-154 140 0 
-155 140 0 
-155 141 0 
-156 137 0 
-156 141 0 
-157 -158 0 
-158 159 0 
-159 149 0 
-159 152 0 
-14 -15 38 0 
-14 15 49 0 
-160 -161 38 0 
-160 161 167 0 
-161 162 0 
-161 36 0 
-15 16 0 
-15 36 0 
-162 163 0 
-162 34 0 
-163 164 0 
-163 32 0 
-164 165 0 
-164 30 0 
-165 166 0 
-165 28 0 
-166 74 0 
-166 82 0 
-167 -168 38 0 
-167 168 174 0 
-168 169 0 
-168 36 0 
-169 170 0 
-169 34 0 
-170 171 0 
-170 32 0 
-171 172 0 
-171 30 0 
-1 3 0 
1 14 0 
-16 17 0 
-16 34 0 
-172 173 0 
-172 20 0 
-173 29 0 
-174 -175 38 0 
-174 175 180 0 
-175 176 0 
-175 36 0 
-176 177 0 
-176 34 0 
-177 178 0 
-177 32 0 
-178 179 0 
-178 30 0 
-179 173 0 
-179 55 0 
-180 -181 38 0 
-180 181 186 0 
-181 182 0 
-181 36 0 
-17 18 0 
-17 32 0 
-182 183 0 
-182 34 0 
-183 184 0 
-183 32 0 
-184 185 0 
-184 19 0 
-185 31 0 
-186 -187 90 0 
-186 187 191 0 
-187 188 0 
-187 36 0 
-188 189 0 
-188 34 0 
-189 190 0 
-189 32 0 
-190 185 0 
-190 54 0 
-191 -192 196 0 
-191 192 249 0 
-18 19 0 
-18 30 0 
-192 193 0 
-192 36 0 
-193 194 0 
-193 34 0 
-194 195 0 
-194 32 0 
-195 185 0 
-195 63 0 
-196 -197 3 0 
-196 197 38 0 
-197 198 0 
-197 245 0 
-198 199 0 
-198 239 0 
-199 200 0 
-199 230 0 
-200 201 0 
-200 221 0 
-201 202 0 
-201 215 0 
-19 20 0 
-19 28 0 
-202 203 0 
-202 210 0 
-203 204 0 
-203 205 0 
-204 -110 0 
-205 -115 206 0 
-205 -206 115 0 
-206 207 0 
-207 208 0 
-208 209 0 
-20 21 0 
-20 26 0 
-209 113 0 
-210 -123 211 0 
-210 -211 123 0 
-211 212 0 
-212 213 0 
-213 214 0 
-214 121 0 
-21 22 0 
-21 24 0 
-215 -134 216 0 
-215 -216 134 0 
-216 217 0 
-217 -218 -219 0 
-217 218 219 0 
-218 119 0 
-22 -23 0 
-219 220 0 
-220 129 0 
-221 -222 0 
-222 -223 -227 0 
-222 223 227 0 
-223 -224 -225 0 
-223 224 225 0 
-224 127 0 
-225 226 0 
-226 140 0 
-227 228 0 
-228 229 0 
-229 218 0 
-229 219 0 
-24 -25 0 
-230 -231 0 
-231 -232 -234 0 
-231 232 234 0 
-232 233 0 
-233 138 0 
-234 235 238 0 
-235 236 237 0 
-236 224 0 
-236 225 0 
-237 225 0 
-237 227 0 
-238 224 0 
-238 227 0 
-239 -240 0 
-240 -241 -243 0 
-240 241 243 0 
-241 242 0 
-242 150 0 
-1 2 0 
-26 -27 0 
-243 244 0 
-244 233 0 
-244 234 0 
-245 -246 0 
-246 247 0 
-247 248 0 
-248 242 0 
-248 243 0 
-249 -250 38 0 
-249 250 254 0 
-250 251 0 
-250 36 0 
-251 252 0 
-251 34 0 
-28 -29 0 
-252 253 0 
-252 32 0 
-253 185 0 
-253 72 0 
-254 -255 90 0 
-254 255 259 0 
-255 256 0 
-255 36 0 
-256 257 0 
-256 34 0 
-257 258 0 
-257 32 0 
-258 185 0 
-258 80 0 
-259 -260 264 0 
-259 260 309 0 
-260 261 0 
-260 36 0 
-261 262 0 
-261 34 0 
-262 263 0 
-262 32 0 
-263 185 0 
-263 88 0 
-264 -265 3 0 
-264 265 38 0 
-265 266 0 
-265 305 0 
-266 267 0 
-266 297 0 
-267 268 0 
-267 288 0 
-268 269 0 
-268 281 0 
-269 270 0 
-269 277 0 
-270 271 0 
-270 273 0 
-271 204 0 
-271 272 0 
-30 -31 0 
-272 -115 0 
-273 -123 274 0 
-273 -274 123 0 
-274 275 0 
-275 276 0 
-276 209 0 
-277 -134 278 0 
-277 -278 134 0 
-278 279 0 
-279 -218 -280 0 
-279 218 280 0 
-280 214 0 
-32 -33 0 
-281 -282 0 
-282 -283 -285 0 
-282 283 285 0 
-283 -224 -284 0 
-283 224 284 0 
-284 220 0 
-285 286 0 
-286 287 0 
-287 218 0 
-287 280 0 
-288 -289 0 
-289 -290 -292 0 
-289 290 292 0 
-290 -233 -291 0 
-290 233 291 0 
-291 226 0 
-292 293 296 0 
-293 294 295 0 
-294 224 0 
-294 284 0 
-295 284 0 
-295 285 0 
-296 224 0 
-296 285 0 
-34 -35 0 
-297 -298 0 
-298 -299 -300 0 
-298 299 300 0 
-299 242 0 
-300 301 304 0 
-301 302 303 0 
-302 233 0 
-302 291 0 
-303 291 0 
-303 292 0 
-304 233 0 
-304 292 0 
-305 -306 0 
-306 307 0 
-307 308 0 
-308 242 0 
-308 300 0 
-36 -37 0 
-309 -310 38 0 
-309 310 314 0 
-310 36 0 
-310 311 0 
-311 34 0 
-311 312 0 
-312 32 0 
-312 313 0 
-313 99 0 
-313 185 0 
-314 -315 38 0 
-314 315 319 0 
-315 36 0 
-315 316 0 
-316 34 0 
-316 317 0 
-317 32 0 
-317 318 0 
-318 165 0 
-318 185 0 
-319 -320 38 0 
-319 320 324 0 
-320 36 0 
-320 321 0 
-321 34 0 
-321 322 0 
-322 32 0 
-322 323 0 
-323 172 0 
-323 185 0 
-324 -325 90 0 
-324 325 329 0 
-325 36 0 
-325 326 0 
-326 34 0 
-326 327 0 
-327 32 0 
-327 328 0 
-328 179 0 
-328 185 0 
-38 39 0 
-38 47 0 
-329 -330 334 0 
-329 330 375 0 
-330 36 0 
-330 331 0 
-331 34 0 
-331 332 0 
-332 18 0 
-332 333 0 
-333 33 0 
-334 -335 3 0 
-334 335 38 0 
-335 336 0 
-336 337 0 
-336 370 0 
-337 338 0 
-337 362 0 
-338 339 0 
-338 354 0 
-39 40 0 
-39 45 0 
-339 340 0 
-339 348 0 
-340 341 0 
-340 345 0 
-341 204 0 
-341 342 0 
-342 -115 343 0 
-342 -343 115 0 
-343 344 0 
-344 118 0 
-345 -123 346 0 
-345 -346 123 0 
-346 347 0 
-347 -126 -276 0 
-347 126 276 0 
-40 41 0 
-40 43 0 
-348 -134 349 0 
-348 -349 134 0 
-349 -350 -351 0 
-349 350 351 0 
-350 -137 -280 0 
-350 137 280 0 
-351 352 0 
-352 353 0 
-353 126 0 
-353 276 0 
-41 -7 42 0 
-41 -42 7 0 
-354 -355 0 
-355 -356 -357 0 
-355 356 357 0 
-356 -149 -284 0 
-356 149 284 0 
-357 358 361 0 
-358 359 360 0 
-359 137 0 
-359 280 0 
-360 280 0 
-360 351 0 
-361 137 0 
-361 351 0 
-362 -363 0 
-363 -364 -365 0 
-363 364 365 0 
-364 291 0 
-365 366 369 0 
-366 367 368 0 
-367 149 0 
-367 284 0 
-368 284 0 
-368 357 0 
-369 149 0 
-369 357 0 
-370 -371 0 
-371 372 0 
-43 -9 44 0 
-43 -44 9 0 
-372 373 0 
-373 374 0 
-374 291 0 
-374 365 0 
-375 -376 379 0 
-375 376 395 0 
-376 36 0 
-376 377 0 
-377 34 0 
-377 378 0 
-378 333 0 
-378 53 0 
-379 -380 387 0 
-379 380 38 0 
-380 381 0 
-380 386 0 
-381 382 0 
-381 385 0 
-45 -11 46 0 
-45 -46 11 0 
-382 383 0 
-382 384 0 
-383 -110 0 
-384 -115 0 
-385 -123 0 
-386 -134 0 
-387 -388 38 0 
-387 388 90 0 
-388 389 0 
-388 394 0 
-389 390 0 
-389 393 0 
-390 391 0 
-390 392 0 
-391 -113 120 0 
-391 -120 113 0 
-392 -121 128 0 
-392 -128 121 0 
-393 -129 139 0 
-393 -139 129 0 
-394 -140 151 0 
-394 -151 140 0 
-395 -396 399 0 
-395 396 400 0 
-396 36 0 
-396 397 0 
-397 34 0 
-397 398 0 
-398 333 0 
-398 62 0 
-399 -380 3 0 
-399 380 38 0 
-400 -401 404 0 
-400 401 505 0 
-401 36 0 
-401 402 0 
-47 -13 48 0 
-47 -48 13 0 
-402 34 0 
-402 403 0 
-403 333 0 
-403 71 0 
-404 -405 90 0 
-404 405 38 0 
-405 406 0 
-405 498 0 
-406 407 0 
-406 484 0 
-407 408 0 
-407 465 0 
-408 409 0 
-408 445 0 
-409 410 0 
-409 430 0 
-410 411 0 
-410 421 0 
-411 412 0 
-411 413 0 
-412 -110 0 
-413 -115 414 0 
-413 -414 115 0 
-414 415 0 
-415 416 0 
-416 417 0 
-417 418 0 
-418 419 0 
-419 420 0 
-49 -50 3 0 
-49 50 58 0 
-421 -123 422 0 
-421 -422 123 0 
-422 423 0 
-423 424 0 
-424 425 0 
-425 -426 -427 0 
-425 426 427 0 
-426 119 0 
-427 428 0 
-428 429 0 
-50 36 0 
-50 51 0 
-51 34 0 
-51 52 0 
-430 -134 431 0 
-430 -431 134 0 
-431 432 0 
-432 -433 -442 0 
-432 433 442 0 
-433 -434 -439 0 
-433 434 439 0 
-434 -435 -436 0 
-434 435 436 0 
-435 127 0 
-436 437 0 
-437 438 0 
-52 32 0 
-52 53 0 
-439 440 0 
-440 441 0 
-441 426 0 
-441 427 0 
-442 443 0 
-443 444 0 
-53 30 0 
-53 54 0 
-445 -446 0 
-446 -447 -462 0 
-446 447 462 0 
-447 -448 -459 0 
-447 448 459 0 
-448 -449 -454 0 
-448 449 454 0 
-449 -450 -451 0 
-449 450 451 0 
-54 28 0 
-54 55 0 
-450 138 0 
-451 452 0 
-452 453 0 
-454 455 458 0 
-455 456 457 0 
-456 435 0 
-456 436 0 
-457 436 0 
-457 439 0 
-55 26 0 
-55 56 0 
-458 435 0 
-458 439 0 
-459 460 0 
-460 461 0 
-462 463 0 
-463 464 0 
-464 433 0 
-464 442 0 
-3 12 0 
-3 4 0 
-56 24 0 
-56 57 0 
-465 -466 0 
-466 -467 -479 0 
-466 467 479 0 
-467 -468 -476 0 
-467 468 476 0 
-468 -469 -471 0 
-468 469 471 0 
-469 470 0 
-470 150 0 
-471 472 475 0 
-57 23 0 
-472 473 474 0 
-473 450 0 
-473 451 0 
-474 451 0 
-474 454 0 
-475 450 0 
-475 454 0 
-476 477 0 
-477 478 0 
-479 480 483 0 
-480 481 482 0 
-58 -59 38 0 
-58 59 67 0 
-481 448 0 
-481 459 0 
-482 459 0 
-482 462 0 
-483 448 0 
-483 462 0 
-484 -485 0 
-485 -486 -493 0 
-485 486 493 0 
-486 -487 -490 0 
-486 487 490 0 
-487 488 0 
-59 36 0 
-59 60 0 
-488 489 0 
-489 470 0 
-489 471 0 
-490 491 0 
-491 492 0 
-60 34 0 
-60 61 0 
-493 494 497 0 
-494 495 496 0 
-495 468 0 
-495 476 0 
-496 476 0 
-496 479 0 
-497 468 0 
-497 479 0 
-498 -499 0 
-499 500 0 
-61 32 0 
-61 62 0 
-62 30 0 
-62 63 0 
-500 501 504 0 
-501 502 503 0 
-502 487 0 
-502 490 0 
-503 490 0 
-503 493 0 
-504 487 0 
-504 493 0 
-505 -506 404 0 
-505 506 509 0 
-506 36 0 
-506 507 0 
-507 34 0 
-507 508 0 
-63 28 0 
-63 64 0 
-508 333 0 
-508 79 0 
-509 -510 513 0 
-509 510 38 0 
-510 36 0 
-510 511 0 
-511 34 0 
-511 512 0 
-512 333 0 
-512 87 0 
-513 -514 3 0 
-513 514 38 0 
-514 515 0 
-515 516 0 
-515 553 0 
-516 517 0 
-516 545 0 
-517 518 0 
-517 536 0 
-64 26 0 
-64 65 0 
-518 519 0 
-518 529 0 
-519 520 0 
-519 525 0 
-520 204 0 
-520 521 0 
-521 -115 522 0 
-521 -522 115 0 
-522 523 0 
-523 524 0 
-524 443 0 
-525 -123 526 0 
-525 -526 123 0 
-526 527 0 
-527 -426 -528 0 
-527 426 528 0 
-65 22 0 
-65 66 0 
-528 460 0 
-529 -134 530 0 
-529 -530 134 0 
-530 -531 -533 0 
-530 531 533 0 
-531 -435 -532 0 
-531 435 532 0 
-532 477 0 
-4 10 0 
-4 5 0 
-66 25 0 
-533 534 0 
-534 535 0 
-535 426 0 
-535 528 0 
-536 -537 0 
-537 -538 -540 0 
-537 538 540 0 
-538 -450 -539 0 
-538 450 539 0 
-539 491 0 
-67 -68 38 0 
-67 68 75 0 
-540 541 544 0 
-541 542 543 0 
-542 435 0 
-542 532 0 
-543 532 0 
-543 533 0 
-544 435 0 
-544 533 0 
-545 -546 0 
-546 -547 -548 0 
-546 547 548 0 
-547 470 0 
-68 36 0 
-68 69 0 
-548 549 552 0 
-549 550 551 0 
-550 450 0 
-550 539 0 
-551 539 0 
-551 540 0 
-552 450 0 
-552 540 0 
-553 -554 0 
-554 555 0 
-69 34 0 
-69 70 0 
-555 556 0 
-556 470 0 
-556 548 0 
-70 32 0 
-70 71 0 
-1 557 0 
1 562 0 
-557 558 0 
-558 559 0 
-559 560 0 
-71 30 0 
-71 72 0 
-560 -561 0 
-562 -15 563 0 
-562 15 565 0 
-563 -561 564 0 
-563 -564 561 0 
-565 -50 557 0 
-565 50 566 0 
-566 -59 563 0 
-566 59 567 0 
-567 -68 563 0 
-567 68 568 0 
-568 -76 563 0 
-568 76 569 0 
-72 28 0 
-72 73 0 
-569 -84 563 0 
-569 84 570 0 
-570 -95 563 0 
-570 95 571 0 
-571 -161 563 0 
-571 161 572 0 
-572 -168 563 0 
-572 168 573 0 
-573 -175 563 0 
-573 175 574 0 
-574 -181 575 0 
-574 181 563 0 
-575 -576 611 0 
-575 576 612 0 
-576 577 0 
-577 578 0 
-577 607 0 
-578 579 0 
-578 599 0 
-73 26 0 
-73 74 0 
-579 580 0 
-579 591 0 
-580 581 0 
-580 585 0 
-581 203 0 
-581 582 0 
-582 -123 583 0 
-582 -583 123 0 
-583 584 0 
-584 -426 -213 0 
-584 426 213 0 
-585 -134 586 0 
-585 -586 134 0 
-586 -587 -588 0 
-586 587 588 0 
-587 -435 -219 0 
-587 435 219 0 
-588 589 0 
-74 57 0 
-74 66 0 
-589 590 0 
-590 213 0 
-590 426 0 
-591 -592 0 
-592 -593 -594 0 
-592 593 594 0 
-593 -450 -225 0 
-593 450 225 0 
-594 595 598 0 
-595 596 597 0 
-596 219 0 
-596 435 0 
-597 219 0 
-597 588 0 
-75 -76 38 0 
-75 76 83 0 
-598 435 0 
-598 588 0 
-599 -600 0 
-600 -601 -602 0 
-600 601 602 0 
-601 470 0 
-602 603 606 0 
-603 604 605 0 
-604 225 0 
-604 450 0 
-605 225 0 
-605 594 0 
-606 450 0 
-606 594 0 
-607 -608 0 
-5 8 0 
-5 6 0 
-76 36 0 
-76 77 0 
-608 609 0 
-609 610 0 
-610 470 0 
-610 602 0 
-77 34 0 
-77 78 0 
-611 561 0 
-612 -613 611 0 
-612 613 615 0 
-613 614 0 
-615 -616 611 0 
-615 616 618 0 
-78 32 0 
-78 79 0 
-616 617 0 
-618 -619 611 0 
-618 619 621 0 
-619 620 0 
-621 -622 611 0 
-621 622 563 0 
-622 623 0 
-79 30 0 
-79 80 0 
-80 28 0 
-80 81 0 
-81 21 0 
-81 82 0 
-82 27 0 
-83 -84 90 0 
-83 84 94 0 
-84 36 0 
-84 85 0 
-85 34 0 
-85 86 0 
-6 -7 0 
-86 32 0 
-86 87 0 
-87 30 0 
-87 88 0 
-88 28 0 
-88 89 0 
-89 56 0 
-89 82 0 
-90 12 0 
-90 91 0 
-91 10 0 
-91 92 0 
-92 8 0 
-92 93 0 
-93 7 0 
-94 -95 101 0 
-94 95 160 0 
-95 96 0 
-95 36 0 
96 -97 -34 0 
97 -98 -32 0 
98 -99 -30 0 
99 -100 -28 0 
100 -65 -82 0 
101 -102 -3 0 
101 -3 -38 0 
101 102 -38 0 
102 -103 0 
103 -104 0 
104 -105 -157 0 
105 -106 -146 0 
106 -107 -133 0 
107 -108 -122 0 
108 -109 -114 0 
109 -110 -111 0 
109 110 111 0 
111 -112 0 
112 -113 0 
8 9 0 
114 -115 -116 0 
114 115 116 0 
116 -117 0 
117 -118 121 0 
117 -121 118 0 
118 -119 0 
119 -120 0 
122 -123 -124 0 
122 123 124 0 
124 -125 130 0 
124 -130 125 0 
125 -126 129 0 
125 -129 126 0 
126 -127 0 
127 -128 0 
130 -131 0 
10 11 0 
131 -132 0 
132 -118 -121 0 
133 -134 -135 0 
133 134 135 0 
135 -136 141 0 
135 -141 136 0 
136 -137 140 0 
136 -140 137 0 
137 -138 0 
138 -139 0 
141 -142 0 
141 -145 0 
142 -143 0 
142 -144 0 
143 -126 -129 0 
144 -129 -130 0 
145 -126 -130 0 
146 147 0 
147 -148 152 0 
147 -152 148 0 
12 13 0 
148 -149 0 
149 -150 0 
150 -151 0 
152 -153 0 
152 -156 0 
153 -154 0 
153 -155 0 
154 -137 -140 0 
155 -140 -141 0 
156 -137 -141 0 
157 158 0 
158 -159 0 
159 -149 -152 0 
14 -15 -38 0 
14 -38 -49 0 
14 15 -49 0 
160 -161 -38 0 
160 -38 -167 0 
160 161 -167 0 
161 -162 -36 0 
15 -16 -36 0 
162 -163 -34 0 
163 -164 -32 0 
164 -165 -30 0 
165 -166 -28 0 
166 -74 -82 0 
167 -168 -38 0 
167 -38 -174 0 
167 168 -174 0 
168 -169 -36 0 
169 -170 -34 0 
170 -171 -32 0 
171 -172 -30 0 
16 -17 -34 0 
172 -20 -173 0 
173 -29 0 
174 -175 -38 0 
174 -38 -180 0 
174 175 -180 0 
175 -176 -36 0 
176 -177 -34 0 
177 -178 -32 0 
178 -179 -30 0 
179 -55 -173 0 
180 -181 -38 0 
180 -38 -186 0 
180 181 -186 0 
181 -182 -36 0 
17 -18 -32 0 
182 -183 -34 0 
183 -184 -32 0 
184 -19 -185 0 
185 -31 0 
186 -187 -90 0 
186 -90 -191 0 
186 187 -191 0 
187 -188 -36 0 
188 -189 -34 0 
189 -190 -32 0 
190 -54 -185 0 
191 -192 -196 0 
191 -196 -249 0 
191 192 -249 0 
18 -19 -30 0 
192 -193 -36 0 
193 -194 -34 0 
194 -195 -32 0 
195 -63 -185 0 
196 -197 -3 0 
196 -3 -38 0 
196 197 -38 0 
197 -198 -245 0 
198 -199 -239 0 
199 -200 -230 0 
200 -201 -221 0 
201 -202 -215 0 
19 -20 -28 0 
202 -203 -210 0 
203 -204 -205 0 
204 110 0 
205 -115 -206 0 
205 115 206 0 
206 -207 0 
207 -208 0 
208 -209 0 
20 -21 -26 0 
209 -113 0 
210 -123 -211 0 
210 123 211 0 
211 -212 0 
212 -213 0 
213 -214 0 
214 -121 0 
21 -22 -24 0 
215 -134 -216 0 
215 134 216 0 
216 -217 0 
217 -218 219 0 
217 -219 218 0 
218 -119 0 
22 23 0 
219 -220 0 
220 -129 0 
221 222 0 
222 -223 227 0 
222 -227 223 0 
223 -224 225 0 
223 -225 224 0 
224 -127 0 
225 -226 0 
226 -140 0 
227 -228 0 
228 -229 0 
229 -218 -219 0 
24 25 0 
230 231 0 
231 -232 234 0 
231 -234 232 0 
232 -233 0 
233 -138 0 
234 -235 0 
234 -238 0 
235 -236 0 
235 -237 0 
236 -224 -225 0 
237 -225 -227 0 
238 -224 -227 0 
239 240 0 
240 -241 243 0 
240 -243 241 0 
241 -242 0 
242 -150 0 
1 -2 0 
26 27 0 
243 -244 0 
244 -233 -234 0 
245 246 0 
246 -247 0 
247 -248 0 
248 -242 -243 0 
249 -250 -38 0 
249 -38 -254 0 
249 250 -254 0 
250 -251 -36 0 
251 -252 -34 0 
28 29 0 
252 -253 -32 0 
253 -72 -185 0 
254 -255 -90 0 
254 -90 -259 0 
254 255 -259 0 
255 -256 -36 0 
256 -257 -34 0 
257 -258 -32 0 
258 -80 -185 0 
259 -260 -264 0 
259 -264 -309 0 
259 260 -309 0 
260 -261 -36 0 
261 -262 -34 0 
262 -263 -32 0 
263 -88 -185 0 
264 -265 -3 0 
264 -3 -38 0 
264 265 -38 0 
265 -266 -305 0 
266 -267 -297 0 
267 -268 -288 0 
268 -269 -281 0 
269 -270 -277 0 
270 -271 -273 0 
271 -204 -272 0 
30 31 0 
272 115 0 
273 -123 -274 0 
273 123 274 0 
274 -275 0 
275 -276 0 
276 -209 0 
277 -134 -278 0 
277 134 278 0 
278 -279 0 
279 -218 280 0 
279 -280 218 0 
280 -214 0 
32 33 0 
281 282 0 
282 -283 285 0 
282 -285 283 0 
283 -224 284 0 
283 -284 224 0 
284 -220 0 
285 -286 0 
286 -287 0 
287 -218 -280 0 
288 289 0 
289 -290 292 0 
289 -292 290 0 
290 -233 291 0 
290 -291 233 0 
291 -226 0 
292 -293 0 
292 -296 0 
293 -294 0 
293 -295 0 
294 -224 -284 0 
295 -284 -285 0 
296 -224 -285 0 
34 35 0 
297 298 0 
298 -299 300 0 
298 -300 299 0 
299 -242 0 
300 -301 0 
300 -304 0 
301 -302 0 
301 -303 0 
302 -233 -291 0 
303 -291 -292 0 
304 -233 -292 0 
305 306 0 
306 -307 0 
307 -308 0 
308 -242 -300 0 
36 37 0 
309 -310 -38 0 
309 -38 -314 0 
309 310 -314 0 
310 -311 -36 0 
311 -312 -34 0 
312 -313 -32 0 
313 -99 -185 0 
314 -315 -38 0 
314 -38 -319 0 
314 315 -319 0 
315 -316 -36 0 
316 -317 -34 0 
317 -318 -32 0 
318 -165 -185 0 
319 -320 -38 0 
319 -38 -324 0 
319 320 -324 0 
320 -321 -36 0 
321 -322 -34 0 
322 -323 -32 0 
323 -172 -185 0 
324 -325 -90 0 
324 -90 -329 0 
324 325 -329 0 
325 -326 -36 0 
326 -327 -34 0 
327 -328 -32 0 
328 -179 -185 0 
38 -39 -47 0 
329 -330 -334 0 
329 -334 -375 0 
329 330 -375 0 
330 -331 -36 0 
331 -332 -34 0 
332 -18 -333 0 
333 -33 0 
334 -335 -3 0 
334 -3 -38 0 
334 335 -38 0 
335 -336 0 
336 -337 -370 0 
337 -338 -362 0 
338 -339 -354 0 
39 -40 -45 0 
339 -340 -348 0 
340 -341 -345 0 
341 -204 -342 0 
342 -115 -343 0 
342 115 343 0 
343 -344 0 
344 -118 0 
345 -123 -346 0 
345 123 346 0 
346 -347 0 
347 -126 276 0 
347 -276 126 0 
40 -41 -43 0 
348 -134 -349 0 
348 134 349 0 
349 -350 351 0 
349 -351 350 0 
350 -137 280 0 
350 -280 137 0 
351 -352 0 
352 -353 0 
353 -126 -276 0 
41 -7 -42 0 
41 7 42 0 
354 355 0 
355 -356 357 0 
355 -357 356 0 
356 -149 284 0 
356 -284 149 0 
357 -358 0 
357 -361 0 
358 -359 0 
358 -360 0 
359 -137 -280 0 
360 -280 -351 0 
361 -137 -351 0 
362 363 0 
363 -364 365 0 
363 -365 364 0 
364 -291 0 
365 -366 0 
365 -369 0 
366 -367 0 
366 -368 0 
367 -149 -284 0 
368 -284 -357 0 
369 -149 -357 0 
370 371 0 
371 -372 0 
43 -9 -44 0 
43 9 44 0 
372 -373 0 
373 -374 0 
374 -291 -365 0 
375 -376 -379 0 
375 -379 -395 0 
375 376 -395 0 
376 -377 -36 0 
377 -378 -34 0 
378 -53 -333 0 
379 -380 -387 0 
379 -387 -38 0 
379 380 -38 0 
380 -381 -386 0 
381 -382 -385 0 
45 -11 -46 0 
45 11 46 0 
382 -383 -384 0 
383 110 0 
384 115 0 
385 123 0 
386 134 0 
387 -38 -90 0 
387 -388 -38 0 
387 388 -90 0 
388 -389 -394 0 
389 -390 -393 0 
390 -391 -392 0 
391 -113 -120 0 
391 113 120 0 
392 -121 -128 0 
392 121 128 0 
393 -129 -139 0 
393 129 139 0 
394 -140 -151 0 
394 140 151 0 
395 -396 -399 0 
395 -399 -400 0 
395 396 -400 0 
396 -397 -36 0 
397 -398 -34 0 
398 -62 -333 0 
399 -380 -3 0 
399 -3 -38 0 
399 380 -38 0 
400 -401 -404 0 
400 -404 -505 0 
400 401 -505 0 
401 -402 -36 0 
47 -13 -48 0 
47 13 48 0 
402 -403 -34 0 
403 -71 -333 0 
404 -405 -90 0 
404 -90 -38 0 
404 405 -38 0 
405 -406 -498 0 
406 -407 -484 0 
407 -408 -465 0 
408 -409 -445 0 
409 -410 -430 0 
410 -411 -421 0 
411 -412 -413 0 
412 110 0 
413 -115 -414 0 
413 115 414 0 
414 -415 0 
415 -416 0 
416 -417 0 
417 -418 0 
418 -419 0 
419 -420 0 
49 -50 -3 0 
49 -3 -58 0 
49 50 -58 0 
421 -123 -422 0 
421 123 422 0 
422 -423 0 
423 -424 0 
424 -425 0 
425 -426 427 0 
425 -427 426 0 
426 -119 0 
427 -428 0 
428 -429 0 
50 -51 -36 0 
51 -52 -34 0 
430 -134 -431 0 
430 134 431 0 
431 -432 0 
432 -433 442 0 
432 -442 433 0 
433 -434 439 0 
433 -439 434 0 
434 -435 436 0 
434 -436 435 0 
435 -127 0 
436 -437 0 
437 -438 0 
52 -53 -32 0 
439 -440 0 
440 -441 0 
441 -426 -427 0 
442 -443 0 
443 -444 0 
53 -54 -30 0 
445 446 0 
446 -447 462 0 
446 -462 447 0 
447 -448 459 0 
447 -459 448 0 
448 -449 454 0 
448 -454 449 0 
449 -450 451 0 
449 -451 450 0 
54 -55 -28 0 
450 -138 0 
451 -452 0 
452 -453 0 
454 -455 0 
454 -458 0 
455 -456 0 
455 -457 0 
456 -435 -436 0 
457 -436 -439 0 
55 -56 -26 0 
458 -435 -439 0 
459 -460 0 
460 -461 0 
462 -463 0 
463 -464 0 
464 -433 -442 0 
3 -4 -12 0 
56 -57 -24 0 
465 466 0 
466 -467 479 0 
466 -479 467 0 
467 -468 476 0 
467 -476 468 0 
468 -469 471 0 
468 -471 469 0 
469 -470 0 
470 -150 0 
471 -472 0 
471 -475 0 
57 -23 0 
472 -473 0 
472 -474 0 
473 -450 -451 0 
474 -451 -454 0 
475 -450 -454 0 
476 -477 0 
477 -478 0 
479 -480 0 
479 -483 0 
480 -481 0 
480 -482 0 
58 -38 -67 0 
58 -59 -38 0 
58 59 -67 0 
481 -448 -459 0 
482 -459 -462 0 
483 -448 -462 0 
484 485 0 
485 -486 493 0 
485 -493 486 0 
486 -487 490 0 
486 -490 487 0 
487 -488 0 
59 -60 -36 0 
488 -489 0 
489 -470 -471 0 
490 -491 0 
491 -492 0 
60 -61 -34 0 
493 -494 0 
493 -497 0 
494 -495 0 
494 -496 0 
495 -468 -476 0 
496 -476 -479 0 
497 -468 -479 0 
498 499 0 
499 -500 0 
61 -62 -32 0 
62 -63 -30 0 
500 -501 0 
500 -504 0 
501 -502 0 
501 -503 0 
502 -487 -490 0 
503 -490 -493 0 
504 -487 -493 0 
505 -404 -509 0 
505 -506 -404 0 
505 506 -509 0 
506 -507 -36 0 
507 -508 -34 0 
63 -64 -28 0 
508 -79 -333 0 
509 -510 -513 0 
509 -513 -38 0 
509 510 -38 0 
510 -511 -36 0 
511 -512 -34 0 
512 -87 -333 0 
513 -3 -38 0 
513 -514 -3 0 
513 514 -38 0 
514 -515 0 
515 -516 -553 0 
516 -517 -545 0 
517 -518 -536 0 
64 -65 -26 0 
518 -519 -529 0 
519 -520 -525 0 
520 -204 -521 0 
521 -115 -522 0 
521 115 522 0 
522 -523 0 
523 -524 0 
524 -443 0 
525 -123 -526 0 
525 123 526 0 
526 -527 0 
527 -426 528 0 
527 -528 426 0 
65 -22 -66 0 
528 -460 0 
529 -134 -530 0 
529 134 530 0 
530 -531 533 0 
530 -533 531 0 
531 -435 532 0 
531 -532 435 0 
532 -477 0 
4 -5 -10 0 
66 -25 0 
533 -534 0 
534 -535 0 
535 -426 -528 0 
536 537 0 
537 -538 540 0 
537 -540 538 0 
538 -450 539 0 
538 -539 450 0 
539 -491 0 
67 -38 -75 0 
67 -68 -38 0 
67 68 -75 0 
540 -541 0 
540 -544 0 
541 -542 0 
541 -543 0 
542 -435 -532 0 
543 -532 -533 0 
544 -435 -533 0 
545 546 0 
546 -547 548 0 
546 -548 547 0 
547 -470 0 
68 -69 -36 0 
548 -549 0 
548 -552 0 
549 -550 0 
549 -551 0 
550 -450 -539 0 
551 -539 -540 0 
552 -450 -540 0 
553 554 0 
554 -555 0 
69 -70 -34 0 
555 -556 0 
556 -470 -548 0 
70 -71 -32 0 
557 -558 0 
558 -559 0 
559 -560 0 
71 -72 -30 0 
560 561 0 
562 -15 -563 0 
562 -563 -565 0 
562 15 -565 0 
563 -561 -564 0 
563 561 564 0 
565 -50 -557 0 
565 -557 -566 0 
565 50 -566 0 
566 -59 -563 0 
566 -563 -567 0 
566 59 -567 0 
567 -68 -563 0 
567 -563 -568 0 
567 68 -568 0 
568 -563 -569 0 
568 -76 -563 0 
568 76 -569 0 
72 -73 -28 0 
569 -563 -570 0 
569 -84 -563 0 
569 84 -570 0 
570 -563 -571 0 
570 -95 -563 0 
570 95 -571 0 
571 -161 -563 0 
571 -563 -572 0 
571 161 -572 0 
572 -168 -563 0 
572 -563 -573 0 
572 168 -573 0 
573 -175 -563 0 
573 -563 -574 0 
573 175 -574 0 
574 -181 -575 0 
574 -575 -563 0 
574 181 -563 0 
575 -576 -611 0 
575 -611 -612 0 
575 576 -612 0 
576 -577 0 
577 -578 -607 0 
578 -579 -599 0 
73 -74 -26 0 
579 -580 -591 0 
580 -581 -585 0 
581 -203 -582 0 
582 -123 -583 0 
582 123 583 0 
583 -584 0 
584 -213 426 0 
584 -426 213 0 
585 -134 -586 0 
585 134 586 0 
586 -587 588 0 
586 -588 587 0 
587 -219 435 0 
587 -435 219 0 
588 -589 0 
74 -57 -66 0 
589 -590 0 
590 -426 -213 0 
591 592 0 
592 -593 594 0 
592 -594 593 0 
593 -225 450 0 
593 -450 225 0 
594 -595 0 
594 -598 0 
595 -596 0 
595 -597 0 
596 -435 -219 0 
597 -219 -588 0 
75 -38 -83 0 
75 -76 -38 0 
75 76 -83 0 
598 -435 -588 0 
599 600 0 
600 -601 602 0 
600 -602 601 0 
601 -470 0 
602 -603 0 
602 -606 0 
603 -604 0 
603 -605 0 
604 -450 -225 0 
605 -225 -594 0 
606 -450 -594 0 
607 608 0 
5 -6 -8 0 
76 -77 -36 0 
608 -609 0 
609 -610 0 
610 -470 -602 0 
77 -78 -34 0 
611 -561 0 
612 -611 -615 0 
612 -613 -611 0 
612 613 -615 0 
613 -614 0 
615 -611 -618 0 
615 -616 -611 0 
615 616 -618 0 
78 -79 -32 0 
616 -617 0 
618 -611 -621 0 
618 -619 -611 0 
618 619 -621 0 
619 -620 0 
621 -611 -563 0 
621 -622 -611 0 
621 622 -563 0 
622 -623 0 
79 -80 -30 0 
80 -81 -28 0 
81 -21 -82 0 
82 -27 0 
83 -84 -90 0 
83 -90 -94 0 
83 84 -94 0 
84 -85 -36 0 
85 -86 -34 0 
6 7 0 
86 -87 -32 0 
87 -88 -30 0 
88 -89 -28 0 
89 -56 -82 0 
90 -91 -12 0 
91 -92 -10 0 
92 -93 -8 0 
93 -7 0 
94 -101 -160 0 
94 -95 -101 0 
94 95 -160 0 
95 -96 -36 0 
